* ; EXPECT: unsat
* (set-info :smt-lib-version 2.6)
* (set-logic QF_BV)
* (set-info :status unsat)
* 
* (declare-const x (_ BitVec 4))
* (declare-const y (_ BitVec 4))
* (assert (not (=
* 	(bvmul (bvadd x y) #b0100)
* 	(bvadd (bvmul x #b0100) (bvmul y #b0100)))))
* (check-sat)
* (exit)
* unsat
* #variable= 42 #constraint= 39
+1 x10 -1 x31 = 0;
+1 x17 -1 x34 = 0;
+1 x34 -1 x32 = 0;
+1 x17 +2 x18 +4 x19 +8 x20 +1 x21 +2 x22 +4 x23 +8 x24 -1 x13 -2 x14 -4 x15 -8 x16 -16 x25 = 0;
+1 x9 -1 x5 = 0;
+1 x10 -1 x37 = 0;
+1 x12 -1 x8 = 0;
-1 x8 -1 x29 -1 x4 >= -2;
+1 x11 -1 x7 = 0;
-1 x8 +1 x29 +1 x4 >= 0;
-1 x7 -1 x28 -1 x3 >= -2;
+1 x41 -1 x39 = 0;
+1 x5 -1 x26 +1 x1 >= 0;
+1 x9 = 0;
+1 x14 -1 x12 = 0;
+1 x8 +1 x29 -1 x4 >= 0;
+1 x9 -1 x36 = 0;
+1 x6 +1 x27 -1 x2 >= 0;
+1 x7 +1 x28 -1 x3 >= 0;
+1 x21 -1 x40 = 0;
+1 x18 -1 x35 = 0;
-1 x6 +1 x27 +1 x2 >= 0;
+1 x9 -1 x30 = 0;
-1 x5 +1 x26 +1 x1 >= 0;
+1 x10 = 0;
+1 x30 +2 x31 +4 x32 +8 x33 +1 x36 +2 x37 +4 x38 +8 x39 -1 x26 -2 x27 -4 x28 -8 x29 -16 x42 = 0;
+1 x22 -1 x41 = 0;
+1 x1 +1 x2 +1 x3 +1 x4 >= 1;
-1 x6 -1 x27 -1 x2 >= -2;
-1 x7 +1 x28 +1 x3 >= 0;
+1 x13 -1 x11 = 0;
-1 x5 -1 x26 -1 x1 >= -2;
+1 x40 -1 x38 = 0;
+1 x7 -1 x28 +1 x3 >= 0;
+1 x35 -1 x33 = 0;
+1 x5 +1 x26 -1 x1 >= 0;
+1 x8 -1 x29 +1 x4 >= 0;
+1 x10 -1 x6 = 0;
+1 x6 -1 x27 +1 x2 >= 0;
